100
120
98
98
98
97
96
95
94
94
92
90
88
88
86
86
86
85
85
83
83
81
80
79
78
78
77
77
76
76
75
74
72
71
71
70
70
67
66
65
65
62
61
61
60
59
59
59
58
58
57
57
57
56
55
53
53
53
52
52
50
50
49
49
49
47
47
47
46
46
44
44
42
42
41
41
40
39
39
39
38
38
36
34
33
33
32
29
29
26
26
26
26
25
25
25
25
24
22
21
21
20
